25
1 3 5 7 9 11 13 15 17 19 21 23 25 27 29 31 33 35 37 39 41 43 45 47 49
8
5
1 3 5 7 9
5
11 13 15 17 19
5
21 23 25 27 29
5
31 33 35 37 39
5
41 43 45 47 49
4
3 13 23 33
4
7 17 27 37
4
9 19 29 39
4
